c Random generated cnf formula, satisfiable: true
p cnf 10 50
4 -7 -8 0
1 10 -4 0
2 7 -1 0
-3 6 5 0
2 3 4 0
-5 -10 8 0
-9 6 -4 0
5 6 1 0
-9 1 2 0
5 10 3 0
-9 3 -2 0
8 -4 -1 0
6 5 -1 0
8 6 -3 0
-5 -7 3 0
-5 3 -2 0
-3 -6 2 0
-5 7 10 0
-2 10 -8 0
7 2 8 0
10 -6 4 0
5 -2 -3 0
-1 -8 -7 0
5 10 -9 0
-10 6 -3 0
10 1 3 0
-9 2 -5 0
10 -3 4 0
3 -10 -6 0
-2 10 -9 0
-7 -8 -4 0
8 -4 6 0
6 3 5 0
-1 -3 -2 0
8 7 4 0
-10 4 9 0
5 10 2 0
-1 -7 2 0
-5 -10 -7 0
9 10 2 0
-8 9 -3 0
1 -4 9 0
-5 6 8 0
7 -3 10 0
2 -8 -5 0
7 5 -4 0
4 -3 8 0
-6 2 4 0
7 1 6 0
-2 -4 -10 0
